p cnf 86 62
d 0.875 0.125
d 0.875 0.125
d 0.875 0.125
d 0.875 0.125
d 0.875 0.125
d 0.875 0.125
d 0.875 0.125
d 0.875 0.125
d 0.875 0.125
d 0.875 0.125
d 0.875 0.125
d 0.875 0.125
d 0.875 0.125
d 0.875 0.125
d 0.875 0.125
d 0.875 0.125
d 0.875 0.125
d 0.875 0.125
d 0.875 0.125
d 0.875 0.125
d 0.875 0.125
d 0.875 0.125
d 0.875 0.125
d 0.875 0.125
d 0.875 0.125
d 0.875 0.125
d 0.875 0.125
d 0.875 0.125
d 0.875 0.125
d 0.875 0.125
72
-80
83 -63 -0
63 -83 -0
68 -84 -2
84 -68 -2
61 -73 -4
73 -61 -4
76 -78 -6
78 -76 -6
62 -64 -8
64 -62 -8
85 -80 -10
80 -85 -10
70 -74 -12
74 -70 -12
79 -73 -14
73 -79 -14
65 -80 -16
80 -65 -16
67 -78 -18
78 -67 -18
65 -66 -20
66 -65 -20
77 -68 -22
68 -77 -22
76 -74 -24
74 -76 -24
85 -60 -26
60 -85 -26
67 -84 -28
84 -67 -28
80 -73 -30
73 -80 -30
71 -64 -32
64 -71 -32
70 -63 -34
63 -70 -34
75 -61 -36
61 -75 -36
70 -63 -38
63 -70 -38
83 -74 -40
74 -83 -40
84 -80 -42
80 -84 -42
65 -67 -44
67 -65 -44
75 -71 -46
71 -75 -46
77 -67 -48
67 -77 -48
68 -84 -50
84 -68 -50
81 -72 -52
72 -81 -52
69 -76 -54
76 -69 -54
83 -70 -56
70 -83 -56
79 -72 -58
72 -79 -58